Cost: 1270
0-3-6-41-39-38-35-31-30-29-24-42-25-28-32-36-37-0
0-40-9-7-10-43-11-12-13-15-16-17-14-21-44-1-0
0-4-5-2-0
Cost: 1270
0-3-6-41-39-38-35-31-30-29-24-42-25-28-32-36-37-0
0-40-9-7-10-43-11-12-13-15-16-17-14-21-44-1-0
0-4-5-2-0
Cost: 1270
0-3-6-41-39-38-35-31-30-29-24-42-25-28-32-36-37-0
0-40-9-7-10-43-11-12-13-15-16-17-14-21-44-1-0
0-4-5-2-0
Cost: 1270
0-3-6-41-39-38-35-31-30-29-24-42-25-28-32-36-37-0
0-40-9-7-10-43-11-12-13-15-16-17-14-21-44-1-0
0-4-5-2-0
Cost: 1270
0-3-6-41-39-38-35-31-30-29-24-42-25-28-32-36-37-0
0-40-9-7-10-43-11-12-13-15-16-17-14-21-44-1-0
0-4-5-2-0
Cost: 1270
0-3-6-41-39-38-35-31-30-29-24-42-25-28-32-36-37-0
0-40-9-7-10-43-11-12-13-15-16-17-14-21-44-1-0
0-4-5-2-0
Cost: 1270
0-3-6-41-39-38-35-31-30-29-24-42-25-28-32-36-37-0
0-40-9-7-10-43-11-12-13-15-16-17-14-21-44-1-0
0-4-5-2-0
Cost: 1270
0-3-6-41-39-38-35-31-30-29-24-42-25-28-32-36-37-0
0-40-9-7-10-43-11-12-13-15-16-17-14-21-44-1-0
0-4-5-2-0
Cost: 1270
0-3-6-41-39-38-35-31-30-29-24-42-25-28-32-36-37-0
0-40-9-7-10-43-11-12-13-15-16-17-14-21-44-1-0
0-4-5-2-0
Cost: 1270
0-3-6-41-39-38-35-31-30-29-24-42-25-28-32-36-37-0
0-40-9-7-10-43-11-12-13-15-16-17-14-21-44-1-0
0-4-5-2-0
Cost: 1270
0-3-6-41-39-38-35-31-30-29-24-42-25-28-32-36-37-0
0-40-9-7-10-43-11-12-13-15-16-17-14-21-44-1-0
0-4-5-2-0
Cost: 1270
0-3-6-41-39-38-35-31-30-29-24-42-25-28-32-36-37-0
0-4-5-2-0
0-40-9-7-10-43-11-12-13-15-16-17-14-21-44-1-0
Cost: 1270
0-3-6-41-39-38-35-31-30-29-24-42-25-28-32-36-37-0
0-4-5-2-0
0-40-9-7-10-43-11-12-13-15-16-17-14-21-44-1-0
Cost: 1270
0-3-6-41-39-38-35-31-30-29-24-42-25-28-32-36-37-0
0-4-5-2-0
0-40-9-7-10-43-11-12-13-15-16-17-14-21-44-1-0
Cost: 1270
0-3-6-41-39-38-35-31-30-29-24-42-25-28-32-36-37-0
0-4-5-2-0
0-40-9-7-10-43-11-12-13-15-16-17-14-21-44-1-0
Cost: 1270
0-3-6-41-39-38-35-31-30-29-24-42-25-28-32-36-37-0
0-4-5-2-0
0-40-9-7-10-43-11-12-13-15-16-17-14-21-44-1-0
Cost: 1270
0-3-6-41-39-38-35-31-30-29-24-42-25-28-32-36-37-0
0-4-5-2-0
0-40-9-7-10-43-11-12-13-15-16-17-14-21-44-1-0
Cost: 1270
0-3-6-41-39-38-35-31-30-29-24-42-25-28-32-36-37-0
0-4-5-2-0
0-40-9-7-10-43-11-12-13-15-16-17-14-21-44-1-0
Cost: 1270
0-3-6-41-39-38-35-31-30-29-24-42-25-28-32-36-37-0
0-4-5-2-0
0-40-9-7-10-43-11-12-13-15-16-17-14-21-44-1-0
Cost: 1270
0-3-6-41-39-38-35-31-30-29-24-42-25-28-32-36-37-0
0-4-5-2-0
0-40-9-7-10-43-11-12-13-15-16-17-14-21-44-1-0
Cost: 1270
0-3-6-41-39-38-35-31-30-29-24-42-25-28-32-36-37-0
0-4-5-2-0
0-40-9-7-10-43-11-12-13-15-16-17-14-21-44-1-0
Cost: 1270
0-3-6-41-39-38-35-31-30-29-24-42-25-28-32-36-37-0
0-4-5-2-0
0-40-9-7-10-43-11-12-13-15-16-17-14-21-44-1-0
Cost: 1270
0-3-6-41-39-38-35-31-30-29-24-42-25-28-32-36-37-0
0-4-5-2-0
0-40-9-7-10-43-11-12-13-15-16-17-14-21-44-1-0
Cost: 1270
0-3-6-41-39-38-35-31-30-29-24-42-25-28-32-36-37-0
0-4-5-2-0
0-40-9-7-10-43-11-12-13-15-16-17-14-21-44-1-0
Cost: 1270
0-3-6-41-39-38-35-31-30-29-24-42-25-28-32-36-37-0
0-4-5-2-0
0-40-9-7-10-43-11-12-13-15-16-17-14-21-44-1-0
Cost: 1270
0-3-6-41-39-38-35-31-30-29-24-42-25-28-32-36-37-0
0-4-5-2-0
0-40-9-7-10-43-11-12-13-15-16-17-14-21-44-1-0
Cost: 1270
0-3-6-41-39-38-35-31-30-29-24-42-25-28-32-36-37-0
0-4-5-2-0
0-40-9-7-10-43-11-12-13-15-16-17-14-21-44-1-0
Cost: 1270
0-3-6-41-39-38-35-31-30-29-24-42-25-28-32-36-37-0
0-4-5-2-0
0-40-9-7-10-43-11-12-13-15-16-17-14-21-44-1-0
Cost: 1270
0-3-6-41-39-38-35-31-30-29-24-42-25-28-32-36-37-0
0-4-5-2-0
0-40-9-7-10-43-11-12-13-15-16-17-14-21-44-1-0
Cost: 1270
0-3-6-41-39-38-35-31-30-29-24-42-25-28-32-36-37-0
0-4-5-2-0
0-40-9-7-10-43-11-12-13-15-16-17-14-21-44-1-0
Cost: 1270
0-40-9-7-10-43-11-12-13-15-16-17-14-21-44-1-0
0-4-5-2-0
0-3-6-41-39-35-31-30-29-24-42-25-28-32-36-37-38-0
Cost: 1270
0-40-9-7-10-43-11-12-13-15-16-17-14-21-44-1-0
0-4-6-41-39-35-31-30-29-24-42-25-28-32-36-37-38-0
0-3-5-2-0
Cost: 1270
0-4-5-2-0
0-40-9-7-10-43-11-12-13-15-16-17-14-21-44-1-0
0-3-6-41-39-38-35-31-30-29-24-42-25-28-32-36-37-0
Cost: 1270
0-6-41-39-35-31-30-29-24-42-25-28-32-36-37-38-0
0-40-9-7-10-43-11-12-13-15-16-17-14-21-44-1-0
0-3-4-5-2-0
Cost: 1270
0-40-9-7-10-43-11-12-13-15-16-17-14-21-44-1-0
0-6-41-39-35-31-30-29-24-42-25-28-32-36-37-38-0
0-3-4-5-2-0
